src/asp/benchmarks/small1.lp
citta(bastia_umbra).
citta(narni).
citta(orvieto).

richiesta(bastia_umbra, strade, 117).
richiesta(bastia_umbra, fiumi, 35).
richiesta(bastia_umbra, scuole, 0).
richiesta(bastia_umbra, parchi, 66).
richiesta(bastia_umbra, energia, 108).

richiesta(narni, strade, 68).
richiesta(narni, fiumi, 20).
richiesta(narni, scuole, 54).
richiesta(narni, parchi, 11).
richiesta(narni, energia, 4).

richiesta(orvieto, strade, 324).
richiesta(orvieto, fiumi, 58).
richiesta(orvieto, scuole, 15).
richiesta(orvieto, parchi, 56).
richiesta(orvieto, energia, 55).

