src/minizinc/benchmarks/small1.dzn
COMUNI = {
	umbertide,
	magione,
	bastia_umbra,
};

NUMERO_COMUNI = 3;

ABITANTI_PER_COMUNE = [16, 14, 21];

STRADE_TRA_COMUNI = [|
	false, false, false |
	false, false, false |
	false, false, false |
|];

RICHIESTE = [|
	223, 41, 104, 46, 9 |
	216, 55, 10, 60, 95 |
	5, 61, 1, 21, 45 |
|];
